NAME : portcgen-30-23
COMMENT : portcgen N=30, seed=23
TYPE : TSP
DIMENSION : 30
EDGE_WEIGHT_TYPE : EUC_2D
NODE_COORD_SECTION
1 113787 -26579
2 47219 41580
3 -65544 71343
4 190831 10349
5 301478 42244
6 218299 244088
7 382307 -208095
8 -96400 -27268
9 314635 -83180
10 65226 -133185
11 68839 10500
12 71157 -2858
13 -263772 -220536
14 -126177 -72883
15 -18758 -83255
16 6049 -207647
17 -243351 -114658
18 -150063 -43705
19 -94615 101823
20 -161618 37930
21 177608 138329
22 145205 -123707
23 -51900 -105724
24 -76268 -81015
25 -22380 369677
26 -65269 -7312
27 -222730 -262673
28 -36555 -125117
29 391000 215728
30 -4144 321221
